&CONTROL
  calculation='relax',
  prefix='calc',
  nstep=500,
  pseudo_dir='/scratch/alevoj1/esp-psp/v2/',
  outdir='calcdir',
  tprnfor=.true.,
  etot_conv_thr=1,
  forc_conv_thr=0.0011668142800103443,
/
&SYSTEM
  ibrav=0,
  celldm(1)=1.8897261245650618,
  nat=12,
  ntyp=4,
  ecutwfc=36.74932379085202,
  ecutrho=367.4932379085202,
  nbnd=68,
  occupations='smearing',
  smearing='fd',
  degauss=0.007349864758170404,
  input_dft='BEEF-vdW',
  nosym=.true.,
/
&ELECTRONS
  diagonalization='david',
  conv_thr=7.349864758170405e-07,
  mixing_beta=0.1,
  mixing_ndim=10,
  electron_maxstep=2000,
  conv_thr=7.349864758170405e-07,
/
&IONS
  ion_dynamics='bfgs',
/
ATOMIC_SPECIES
Ca 40.078 Ca.UPF
O 15.999 O.UPF
Mg 24.305 Mg.UPF
Si 28.085 Si.UPF
ATOMIC_POSITIONS {crystal}
Ca      0.696480095386505     0.396241366863251     0.145434200763702
O       0.806160271167755     0.798690557479858     0.942772090435028
Mg      0.439255326986313     0.139271140098572     0.916878044605255
Si      0.121506735682487     0.821596026420593     0.869872331619263
Si      0.271087646484375     0.969348967075348     0.422024130821228
O       0.005558960605413     0.993346631526947     0.348266571760178
Mg      0.953310132026672     0.652403473854065     0.374548166990280
O       0.586789786815643     0.704555034637451     0.348229080438614
O       0.196611464023590     0.895729780197144     0.645839989185333
O       0.293325036764145     0.285470962524414     0.347839683294296
O       0.386275798082352     0.505990207195282     0.943264722824097
O       0.099197477102280     0.086533740162849     0.943173289299011
CELL_PARAMETERS angstrom
    5.332332698081132     0.000000000000000     0.000000000000000
    2.663501368601913     4.618737800738373     0.000000000000000
    2.661864637504739     1.543472560338615     7.343267423773963
K_POINTS automatic
4 4 4 0 0 0
