!    ibrav = 0, nat = 96, ntyp = 4
CELL_PARAMETERS bohr
   20.1532969420172172    0.0000000000000000    0.0000000000000000
   10.0665763046293133   17.4562990844694141    0.0000000000000000
   10.0603903575620084    5.8334808781817715   27.7535287641024020
ATOMIC_SPECIES
 Ca   40.07800   Ca.UPF
  O   15.99940   O.UPF
 Mg   24.30500   Mg.UPF
 Si   28.08550   Si.UPF
ATOMIC_POSITIONS crystal
 Ca   0.3482400476932525  0.1981206834316255  0.0727171003818510
 Ca   0.8482400476932528  0.1981206834316255  0.0727171003818510
 Ca   0.3482400476932526  0.6981206834316255  0.0727171003818510
 Ca   0.8482400476932527  0.6981206834316255  0.0727171003818510
 Ca   0.3482400476932525  0.1981206834316255  0.5727171003818511
 Ca   0.8482400476932528  0.1981206834316255  0.5727171003818511
 Ca   0.3482400476932526  0.6981206834316254  0.5727171003818511
 Ca   0.8482400476932526  0.6981206834316254  0.5727171003818511
  O   0.4030801355838775  0.3993452787399289  0.4713860452175140
  O   0.9030801355838776  0.3993452787399289  0.4713860452175140
  O   0.4030801355838776  0.8993452787399289  0.4713860452175140
  O   0.9030801355838778  0.8993452787399289  0.4713860452175140
  O   0.4030801355838776  0.3993452787399289  0.9713860452175140
  O   0.9030801355838775  0.3993452787399289  0.9713860452175140
  O   0.4030801355838775  0.8993452787399290  0.9713860452175140
  O   0.9030801355838775  0.8993452787399290  0.9713860452175140
 Mg   0.2196276634931564  0.0696355700492860  0.4584390223026276
 Mg   0.7196276634931567  0.0696355700492860  0.4584390223026276
 Mg   0.2196276634931565  0.5696355700492860  0.4584390223026276
 Mg   0.7196276634931568  0.5696355700492860  0.4584390223026276
 Mg   0.2196276634931564  0.0696355700492860  0.9584390223026277
 Mg   0.7196276634931567  0.0696355700492860  0.9584390223026277
 Mg   0.2196276634931566  0.5696355700492859  0.9584390223026277
 Mg   0.7196276634931567  0.5696355700492859  0.9584390223026277
 Si   0.0607533678412435  0.4117905252421443  0.4349361658096315
 Si   0.5607533678412435  0.4107980132102964  0.4349361658096315
 Si   0.0607533678412435  0.9107980132102966  0.4349361658096315
 Si   0.5607533678412435  0.9107980132102966  0.4349361658096315
 Si   0.0607533678412434  0.4107980132102965  0.9349361658096317
 Si   0.5607533678412436  0.4107980132102965  0.9349361658096317
 Si   0.0607533678412435  0.9107980132102966  0.9349361658096317
 Si   0.5607533678412435  0.9107980132102966  0.9349361658096317
 Si   0.1355438232421875  0.4846744835376740  0.2110120654106140
 Si   0.6355438232421876  0.4846744835376740  0.2110120654106140
 Si   0.1355438232421876  0.9846744835376738  0.2110120654106140
 Si   0.6355438232421876  0.9846744835376738  0.2110120654106140
 Si   0.1355438232421875  0.4846744835376739  0.7110120654106141
 Si   0.6355438232421876  0.4846744835376739  0.7110120654106141
 Si   0.1355438232421876  0.9846744835376736  0.7110120654106141
 Si   0.6355438232421876  0.9846744835376736  0.7110120654106141
  O   0.0027794803027065  0.4966733157634735  0.1741332858800890
  O   0.5027794803027067  0.4966733157634735  0.1741332858800890
  O   0.0027794803027065  0.9966733157634735  0.1741332858800890
  O   0.5027794803027066  0.9966733157634735  0.1741332858800890
  O   0.0027794803027065  0.4966733157634734  0.6741332858800891
  O   0.5027794803027067  0.4966733157634734  0.6741332858800891
  O   0.0027794803027065  0.9966733157634735  0.6741332858800891
  O   0.5027794803027064  0.9966733157634735  0.6741332858800891
 Mg   0.4766550660133360  0.3262017369270325  0.1872740834951400
 Mg   0.9766550660133360  0.3262017369270325  0.1872740834951400
 Mg   0.4766550660133361  0.8262017369270325  0.1872740834951400
 Mg   0.9766550660133360  0.8262017369270325  0.1872740834951400
 Mg   0.4766550660133361  0.3262017369270325  0.6872740834951401
 Mg   0.9766550660133361  0.3262017369270325  0.6872740834951401
 Mg   0.4766550660133361  0.8262017369270324  0.6872740834951401
 Mg   0.9766550660133361  0.8262017369270324  0.6872740834951401
  O   0.2933948934078216  0.3522775173187254  0.1741145402193070
  O   0.7933948934078215  0.3522775173187254  0.1741145402193070
  O   0.2933948934078215  0.8522775173187254  0.1741145402193070
  O   0.7933948934078217  0.8522775173187254  0.1741145402193070
  O   0.2933948934078217  0.3522775173187254  0.6741145402193071
  O   0.7933948934078214  0.3522775173187254  0.6741145402193071
  O   0.2933948934078214  0.8522775173187255  0.6741145402193071
  O   0.7933948934078217  0.8522775173187255  0.6741145402193071
  O   0.0983057320117951  0.4478648900985719  0.3229199945926665
  O   0.5983057320117950  0.4478648900985719  0.3229199945926665
  O   0.0983057320117951  0.9478648900985718  0.3229199945926665
  O   0.5983057320117952  0.9478648900985718  0.3229199945926665
  O   0.0983057320117950  0.4478648900985720  0.8229199945926666
  O   0.5983057320117952  0.4478648900985720  0.8229199945926666
  O   0.0983057320117951  0.9478648900985719  0.8229199945926666
  O   0.5983057320117952  0.9478648900985719  0.8229199945926666
  O   0.1466625183820725  0.1427354812622070  0.1739198416471480
  O   0.6466625183820726  0.1427354812622070  0.1739198416471480
  O   0.1466625183820725  0.6427354812622069  0.1739198416471480
  O   0.6466625183820724  0.6427354812622069  0.1739198416471480
  O   0.1466625183820725  0.1427354812622070  0.6739198416471481
  O   0.6466625183820723  0.1427354812622070  0.6739198416471481
  O   0.1466625183820726  0.6427354812622069  0.6739198416471481
  O   0.6466625183820724  0.6427354812622069  0.6739198416471481
  O   0.1931378990411760  0.2529951035976409  0.4716323614120486
  O   0.6931378990411763  0.2529951035976409  0.4716323614120486
  O   0.1931378990411760  0.7529951035976409  0.4716323614120486
  O   0.6931378990411762  0.7529951035976409  0.4716323614120486
  O   0.1931378990411760  0.2529951035976410  0.9716323614120486
  O   0.6931378990411762  0.2529951035976410  0.9716323614120486
  O   0.1931378990411760  0.7529951035976411  0.9716323614120486
  O   0.6931378990411760  0.7529951035976411  0.9716323614120486
  O   0.0495987385511400  0.0432668700814245  0.4715866446495055
  O   0.5495987385511401  0.0432668700814245  0.4715866446495055
  O   0.0495987385511401  0.5432668700814245  0.4715866446495055
  O   0.5495987385511402  0.5432668700814245  0.4715866446495055
  O   0.0495987385511400  0.0432668700814244  0.9715866446495055
  O   0.5495987385511401  0.0432668700814244  0.9715866446495055
  O   0.0495987385511400  0.5432668700814245  0.9715866446495055
  O   0.5495987385511399  0.5432668700814245  0.9715866446495055